(declare-fun var0 () String)
(assert (str.in.re var0 (re.++ (re.+ (re.union (str.to.re "kkk") (str.to.re "lll"))) (re.++ (re.* (re.+ (str.to.re "jjj"))) (re.++ (re.union (re.union (str.to.re "f") (str.to.re "g")) (re.union (str.to.re "h") (str.to.re "iii"))) (re.++ (re.union (re.union (str.to.re "b") (str.to.re "cc")) (re.union (str.to.re "dd") (str.to.re "e"))) (re.++ (re.union (re.* (str.to.re "99")) (re.+ (str.to.re "a"))) (re.++ (re.* (re.+ (str.to.re "88"))) (re.++ (re.union (re.union (str.to.re "5") (str.to.re "66")) (re.+ (str.to.re "77"))) (re.++ (re.+ (re.union (str.to.re "33") (str.to.re "444"))) (re.++ (re.* (re.union (str.to.re "111") (str.to.re "22"))) (re.+ (re.+ (str.to.re "0"))))))))))))))
(assert (str.in.re var0 (re.++ (re.+ (re.+ (str.to.re "fff"))) (re.++ (re.+ (re.+ (str.to.re "ee"))) (re.++ (re.* (re.* (str.to.re "dd"))) (re.++ (re.union (re.union (str.to.re "aaa") (str.to.re "b")) (re.+ (str.to.re "c"))) (re.++ (re.+ (re.union (str.to.re "888") (str.to.re "9"))) (re.++ (re.* (re.union (str.to.re "6") (str.to.re "7"))) (re.++ (re.+ (re.+ (str.to.re "5"))) (re.++ (re.+ (re.* (str.to.re "44"))) (re.++ (re.union (re.union (str.to.re "11") (str.to.re "22")) (re.+ (str.to.re "333"))) (re.* (re.* (str.to.re "0"))))))))))))))
(assert (str.in.re var0 (re.++ (re.union (re.+ (str.to.re "ddd")) (re.* (str.to.re "ee"))) (re.++ (re.* (re.* (str.to.re "ccc"))) (re.++ (re.* (re.union (str.to.re "a") (str.to.re "b"))) (re.++ (re.union (re.+ (str.to.re "8")) (re.* (str.to.re "999"))) (re.++ (re.+ (re.* (str.to.re "77"))) (re.++ (re.* (re.* (str.to.re "66"))) (re.++ (re.+ (re.* (str.to.re "5"))) (re.++ (re.* (re.+ (str.to.re "444"))) (re.++ (re.union (re.union (str.to.re "11") (str.to.re "22")) (re.* (str.to.re "33"))) (re.* (re.* (str.to.re "000"))))))))))))))
(assert (str.in.re var0 (re.++ (re.* (re.+ (str.to.re "jj"))) (re.++ (re.+ (re.* (str.to.re "iii"))) (re.++ (re.union (re.union (str.to.re "fff") (str.to.re "gg")) (re.* (str.to.re "h"))) (re.++ (re.union (re.+ (str.to.re "d")) (re.+ (str.to.re "eee"))) (re.++ (re.+ (re.union (str.to.re "bbb") (str.to.re "cc"))) (re.++ (re.* (re.union (str.to.re "999") (str.to.re "a"))) (re.++ (re.* (re.union (str.to.re "7") (str.to.re "8"))) (re.++ (re.union (re.+ (str.to.re "55")) (re.* (str.to.re "6"))) (re.++ (re.union (re.* (str.to.re "3")) (re.+ (str.to.re "444"))) (re.union (re.+ (str.to.re "00")) (re.union (str.to.re "1") (str.to.re "2"))))))))))))))
(assert (str.in.re var0 (re.++ (re.+ (re.+ (str.to.re "gg"))) (re.++ (re.* (re.+ (str.to.re "fff"))) (re.++ (re.+ (re.union (str.to.re "dd") (str.to.re "ee"))) (re.++ (re.* (re.+ (str.to.re "cc"))) (re.++ (re.union (re.* (str.to.re "99")) (re.union (str.to.re "aaa") (str.to.re "bbb"))) (re.++ (re.union (re.union (str.to.re "6") (str.to.re "777")) (re.* (str.to.re "8"))) (re.++ (re.union (re.* (str.to.re "44")) (re.* (str.to.re "55"))) (re.++ (re.* (re.union (str.to.re "222") (str.to.re "3"))) (re.++ (re.* (re.+ (str.to.re "1"))) (re.+ (re.* (str.to.re "00"))))))))))))))
(check-sat)